
  16    0


   0  11 2 3 4 6 7 10 11 12 13 14 15 
   3   2 9 8 
   9   2 9 8 
   2   1 5 
   8   1 8 
   1   1 8 
   2   1 8 
   8   1 16
   3   1 16
   8   1 16
   3   1 16
   4   1 16
   3   1 16
  10   1 16
   7   1 16
   0   0 
